p cnf 24 58
a 2 21 0
e 1 3 4 5 6 7 8 9 10 11 12 13 14 15 16 17 18 19 20 22 23 24 0
3 1 0
3 -2 0
-1 2 -3 0
6 -4 0
6 5 0
4 -5 -6 0
-2 4 -7 0
2 -4 -7 0
-2 -4 7 0
2 4 7 0
8 6 0
8 7 0
-6 -7 -8 0
-9 3 0
-9 8 0
-3 -8 9 0
11 -1 0
11 -10 0
1 10 -11 0
12 9 0
12 11 0
-9 -11 -12 0
14 13 0
14 -2 0
-13 2 -14 0
-15 -16 -17 0
15 16 -17 0
-15 16 17 0
15 -16 17 0
18 1 0
18 6 0
-1 -6 -18 0
-8 -18 -19 0
8 18 -19 0
-8 18 19 0
8 -18 19 0
20 -17 0
20 19 0
17 -19 -20 0
-21 15 0
-21 5 0
-15 -5 21 0
22 -20 0
22 -21 0
20 21 -22 0
23 -14 0
23 22 0
14 -22 -23 0
12 -23 -24 0
-12 23 -24 0
12 23 24 0
-12 -23 24 0
20 2 -4 15 0
-23 21 -4 -7 -20 13 0
15 6 -1 -14 -4 5 18 0
-16 -14 21 0
-4 11 22 9 -17 3 -16 0
24 0
